HUN,8,6,95
4,24,2,27,3,25,5,27,0,24,1,30
0,25,1,23,3,23,4,25,5,27,2,27
3,24,4,27,0,29,1,27,5,27,2,27
2,30,5,23,4,22,0,23,1,29,3,25
4,24,2,22,3,21,1,25,0,28,5,21
3,26,2,28,5,24,4,24,1,29,0,27
3,26,1,21,0,28,4,30,5,22,2,29
0,27,3,26,1,21,4,27,2,28,5,29
